
Gurobi 11.0.1 (win64) logging started Thu May 16 18:56:13 2024

Set parameter LogFile to value "output/solver_log25.txt"
Gurobi Optimizer version 11.0.1 build v11.0.1rc0 (win64 - Windows 11.0 (22631.2))

CPU model: 11th Gen Intel(R) Core(TM) i7-1165G7 @ 2.80GHz, instruction set [SSE2|AVX|AVX2|AVX512]
Thread count: 4 physical cores, 8 logical processors, using up to 8 threads

Optimize a model with 5108 rows, 1317 columns and 96637 nonzeros
Model fingerprint: 0xed585780
Variable types: 568 continuous, 749 integer (749 binary)
Coefficient statistics:
  Matrix range     [4e-01, 1e+05]
  Objective range  [1e+00, 1e+02]
  Bounds range     [1e+00, 1e+00]
  RHS range        [1e-02, 1e+05]

User MIP start produced solution with objective 40340.1 (0.02s)
User MIP start produced solution with objective 40340.1 (0.02s)
Loaded user MIP start with objective 40340.1

Presolve removed 705 rows and 387 columns
Presolve time: 0.10s
Presolved: 4403 rows, 930 columns, 84601 nonzeros
Variable types: 526 continuous, 404 integer (396 binary)

Root relaxation: objective 5.404090e+04, 1287 iterations, 0.06 seconds (0.12 work units)

    Nodes    |    Current Node    |     Objective Bounds      |     Work
 Expl Unexpl |  Obj  Depth IntInf | Incumbent    BestBd   Gap | It/Node Time

     0     0 54040.8958    0   42 40340.1102 54040.8958  34.0%     -    0s
     0     0 52722.8600    0   53 40340.1102 52722.8600  30.7%     -    0s
     0     0 52718.4260    0   54 40340.1102 52718.4260  30.7%     -    0s
     0     0 51070.0552    0   55 40340.1102 51070.0552  26.6%     -    0s
     0     0 51035.9816    0   67 40340.1102 51035.9816  26.5%     -    1s
     0     0 51034.5842    0   72 40340.1102 51034.5842  26.5%     -    1s
     0     0 51034.5842    0   72 40340.1102 51034.5842  26.5%     -    1s
     0     0 50792.0973    0   77 40340.1102 50792.0973  25.9%     -    1s
     0     0 50650.4051    0   70 40340.1102 50650.4051  25.6%     -    1s
     0     0 50650.4051    0   72 40340.1102 50650.4051  25.6%     -    1s
     0     0 50650.4051    0   81 40340.1102 50650.4051  25.6%     -    1s
     0     0 50354.9014    0   68 40340.1102 50354.9014  24.8%     -    1s
     0     0 50230.7898    0   62 40340.1102 50230.7898  24.5%     -    2s
     0     0 50220.1863    0   61 40340.1102 50220.1863  24.5%     -    2s
     0     0 50220.1863    0   61 40340.1102 50220.1863  24.5%     -    2s
     0     0 49968.7905    0   74 40340.1102 49968.7905  23.9%     -    2s
     0     0 49821.6485    0   73 40340.1102 49821.6485  23.5%     -    2s
     0     0 49821.6485    0   73 40340.1102 49821.6485  23.5%     -    2s
     0     0 49821.6485    0   73 40340.1102 49821.6485  23.5%     -    2s
     0     0 49478.6636    0   69 40340.1102 49478.6636  22.7%     -    2s
     0     0 49478.6636    0   69 40340.1102 49478.6636  22.7%     -    2s
     0     0 49261.9678    0   66 40340.1102 49261.9678  22.1%     -    2s
     0     0 49228.3313    0   68 40340.1102 49228.3313  22.0%     -    2s
     0     0 49228.3313    0   70 40340.1102 49228.3313  22.0%     -    2s
     0     0 49170.2452    0   73 40340.1102 49170.2452  21.9%     -    3s
     0     0 49117.7216    0   69 40340.1102 49117.7216  21.8%     -    3s
     0     0 49019.0215    0   83 40340.1102 49019.0215  21.5%     -    3s
     0     0 48980.1348    0   82 40340.1102 48980.1348  21.4%     -    3s
     0     0 48967.5328    0   88 40340.1102 48967.5328  21.4%     -    3s
     0     0 48967.5328    0   86 40340.1102 48967.5328  21.4%     -    3s
     0     2 48967.5328    0   86 40340.1102 48967.5328  21.4%     -    3s
    23    28 47542.7855    6   60 40340.1102 48967.5328  21.4%   814    5s
   234   159 40796.5564   13   31 40340.1102 48967.5328  21.4%   587   10s
   453   264 41480.9277   17   22 40340.1102 47452.6588  17.6%   672   15s
H  581   349                    40343.963389 47452.6588  17.6%   598   17s
   642   390 40348.7067   68   24 40343.9634 47452.6588  17.6%   576   21s
   867   516 42693.7134    9   56 40343.9634 46449.4137  15.1%   515   25s
  1099   584 41159.4474   14   34 40343.9634 45919.9142  13.8%   526   30s
  1271   621 42531.8883    8   34 40343.9634 45517.6340  12.8%   543   35s
  1507   667 40672.9722   16   20 40343.9634 45231.5738  12.1%   573   40s
  1671   707 42445.6965   10   33 40343.9634 45017.8467  11.6%   586   45s
  1921   757 40572.6800   16   55 40343.9634 44757.1271  10.9%   611   50s
  2213   820 40555.5523   10   20 40343.9634 44507.4975  10.3%   617   55s
  2589   885     cutoff   14      40343.9634 44176.8494  9.50%   625   60s

Cutting planes:
  Gomory: 8
  Implied bound: 18
  MIR: 165
  RLT: 12
  BQP: 2

Explored 2720 nodes (1716316 simplex iterations) in 60.02 seconds (142.83 work units)
Thread count was 8 (of 8 available processors)

Solution count 2: 40344 40340.1 

Time limit reached
Best objective 4.034396338882e+04, best bound 4.406107580693e+04, gap 9.2136%
